CMD:
./solvers/bin/cadical --plain --no-reduce -t 1600 ./data/cnfs//intel036/intel036.85.cnf

c --- [ banner ] -------------------------------------------------------------
c 
c CaDiCaL SAT Solver
c Copyright (c) 2016-2024
c A. Biere, M. Fleury, N. Froleyks, K. Fazekas, F. Pollitt, T. Faller
c JKU Linz, University of Freiburg, TU Wien
c 
c Version 2.1.3 5296d3d2a9bf48c154ab2acb5e44625776d821bf
c g++ (Gentoo 12.3.1_p20230526 p2) 12.3.1 20230526 -Wall -Wextra -O3 -DNDEBUG
c Sat Aug 9 07:26:21 PDT 2025 Linux cedar2.int.cedar.computecanada.ca 5.14.0-362.24.2.el9_3.x86_64 x86_64
c 
c --- [ limit ] --------------------------------------------------------------
c 
c setting time limit to 1600 seconds real time (due to '-t 1600')
c 
c --- [ parsing input ] ------------------------------------------------------
c 
c reading DIMACS file from './data/cnfs//intel036/intel036.85.cnf'
c opening file to read './data/cnfs//intel036/intel036.85.cnf'
c found 'p cnf 7689452 21561189' header
c parsed 21561189 clauses in 4.33 seconds process time
c 
c --- [ options ] ------------------------------------------------------------
c 
c   --compact=false                (different from default 'true')
c   --decompose=false              (different from default 'true')
c   --deduplicate=false            (different from default 'true')
c   --elim=false                   (different from default 'true')
c   --probe=false                  (different from default 'true')
c   --reduce=false                 (different from default 'true')
c   --subsume=false                (different from default 'true')
c   --ternary=false                (different from default 'true')
c   --transred=false               (different from default 'true')
c   --vivify=false                 (different from default 'true')
c 
c --- [ solving ] ------------------------------------------------------------
c 
c time measured in process time since initialization
c 
c  seconds    reductions  redundant   irredundant
c          MB     restarts       trail          variables
c            level   conflicts       glue             remaining
c 
c *  4.33 3260  0 0   0    0    0  0% 0 20183617 5252541 68%
c {  4.74 3267  0 0   0    0    0  0% 0 20183617 5252541 68%
c i  4.78 3267 3461 0   0    8    6 32% 3 20183617 5251814 68%
c i  4.79 3267 3560 0   0   12    9 32% 2 20183617 5251809 68%
c i  4.83 3267 3644 0   0   18   14 33% 2 20183617 5251808 68%
c i  4.84 3267 3654 0   0   19   14 33% 2 20183617 5251807 68%
c i  4.84 3267 3663 0   0   20   14 33% 2 20183617 5251806 68%
c i  4.85 3267 3672 0   0   21   14 33% 2 20183617 5251805 68%
c i  4.85 3267 3680 0   0   22   14 33% 2 20183617 5251804 68%
c i  4.86 3267 3687 0   0   23   14 33% 2 20183617 5251803 68%
c i  4.86 3267 3693 0   0   24   14 33% 2 20183617 5251802 68%
c i  4.87 3267 3699 0   0   25   14 33% 1 20183617 5251801 68%
c i  4.88 3267 3705 0   0   26   14 33% 1 20183617 5251800 68%
c i  4.88 3267 3710 0   0   27   14 33% 1 20183617 5251799 68%
c i  4.89 3267 3714 0   0   28   14 33% 1 20183617 5251798 68%
c i  4.89 3267 3719 0   0   29   14 33% 1 20183617 5251797 68%
c i  4.90 3267 3723 0   0   30   14 33% 1 20183617 5251796 68%
c i  4.90 3267 3727 0   0   31   14 33% 1 20183617 5251795 68%
c i  4.91 3267 3731 0   0   32   14 33% 1 20183617 5251794 68%
c i  4.91 3267 3734 0   0   33   14 33% 1 20183617 5251793 68%
c 
c  seconds      reductions  redundant   irredundant
c          MB       restarts       trail          variables
c             level    conflicts       glue             remaining
c 
c i  4.92 3267 3738 0   0   34   14 33% 1 20183617 5251792 68%
c i  4.92 3267 3741 0   0   35   14 33% 1 20183617 5251791 68%
c i  4.93 3267 3744 0   0   36   14 33% 1 20183617 5251790 68%
c i  4.93 3267 3747 0   0   37   14 33% 1 20183617 5251789 68%
c i  4.94 3267 3750 0   0   38   14 33% 1 20183617 5251788 68%
c i  4.94 3267 3752 0   0   39   14 33% 1 20183617 5251787 68%
c i  4.95 3267 3755 0   0   40   14 33% 1 20183617 5251786 68%
c i  4.95 3267 3757 0   0   41   14 33% 1 20183617 5251785 68%
c i  4.96 3267 3760 0   0   42   14 33% 1 20183617 5251784 68%
c i  4.97 3267 3762 0   0   43   14 33% 1 20183617 5251783 68%
c i  4.97 3267 3764 0   0   44   14 33% 1 20183617 5251782 68%
c i  4.98 3267 3766 0   0   45   14 33% 1 20183617 5251781 68%
c i  4.98 3267 3768 0   0   46   14 33% 1 20183617 5251780 68%
c i  4.99 3267 3770 0   0   47   14 33% 1 20183617 5251779 68%
c i  4.99 3267 3772 0   0   48   14 33% 1 20183617 5251778 68%
c i  5.00 3267 3774 0   0   49   14 33% 1 20183617 5251777 68%
c i  5.00 3267 3776 0   0   50   14 33% 1 20183617 5251776 68%
c i  5.01 3267 3777 0   0   51   14 33% 1 20183617 5251775 68%
c i  5.01 3267 3779 0   0   52   14 33% 1 20183617 5251774 68%
c i  5.02 3267 3781 0   0   53   14 33% 1 20183617 5251773 68%
c 
c  seconds      reductions  redundant   irredundant
c          MB       restarts       trail          variables
c             level    conflicts       glue             remaining
c 
c i  5.02 3267 3782 0   0   54   14 33% 1 20183617 5251772 68%
c i  5.03 3267 3784 0   0   55   14 33% 1 20183617 5251771 68%
c i  5.03 3267 3785 0   0   56   14 33% 1 20183617 5251770 68%
c i  5.04 3267 3787 0   0   57   14 33% 1 20183617 5251769 68%
... skipped 1182 lines ...
c i 10.77 3271 16791 0   5 1016   28 48% 1 20183617 5250761 68%
c i 10.78 3271 17852 0   5 1018   29 49% 1 20183617 5250756 68%
c i 10.82 3272 18454 0   5 1019   29 49% 1 20183617 5250752 68%
c i 10.83 3272 19486 0   5 1021   30 49% 1 20183617 5250747 68%
c i 10.85 3272 20066 0   5 1022   30 49% 1 20183617 5250743 68%
c i 10.86 3272 21081 0   5 1024   31 49% 1 20183617 5250738 68%
c i 10.90 3273 21646 0   5 1025   31 50% 1 20183617 5250734 68%
c i 10.92 3273 22649 0   5 1027   32 50% 1 20183617 5250729 68%
c i 10.94 3273 23203 0   5 1028   32 50% 0 20183617 5250725 68%
c 
c  seconds       reductions  redundant   irredundant
c          MB        restarts       trail          variables
c              level    conflicts       glue             remaining
c 
c i 10.95 3273 24199 0   5 1030   33 50% 0 20183617 5250720 68%
c i 10.98 3291 24745 0   5 1031   33 51% 0 20183617 5250716 68%
c i 11.00 3291 25736 0   5 1033   34 51% 0 20183617 5250711 68%
c i 11.02 3292 26275 0   5 1034   34 51% 0 20183617 5250707 68%
c i 11.03 3292 27263 0   5 1036   35 51% 0 20183617 5250702 68%
c i 11.07 3292 27797 0   5 1037   35 51% 0 20183617 5250698 68%
c i 11.08 3292 28782 0   5 1039   36 52% 0 20183617 5250693 68%
c i 11.10 3292 29311 0   5 1040   36 52% 0 20183617 5250689 68%
c i 11.12 3292 30295 0   5 1042   37 52% 0 20183617 5250684 68%
c i 11.15 3292 30821 0   5 1043   37 52% 0 20183617 5250680 68%
c i 11.16 3292 31803 0   5 1045   38 53% 0 20183617 5250675 68%
c i 11.18 3292 32326 0   5 1046   38 53% 0 20183617 5250671 68%
c i 11.19 3292 33307 0   5 1048   39 53% 0 20183617 5250666 68%
c i 11.22 3292 33828 0   5 1049   39 53% 0 20183617 5250662 68%
c i 11.23 3292 34808 0   5 1051   40 54% 0 20183617 5250657 68%
c i 11.25 3292 35327 0   5 1052   40 54% 0 20183617 5250653 68%
c i 11.26 3292 36306 0   5 1054   41 54% 0 20183617 5250648 68%
c i 11.30 3294 36823 0   5 1055   41 54% 0 20183617 5250644 68%
c i 11.31 3294 37802 0   5 1057   42 55% 0 20183617 5250639 68%
c i 11.33 3294 38317 0   5 1058   42 55% 0 20183617 5250635 68%
c 
c  seconds       reductions  redundant   irredundant
c          MB        restarts       trail          variables
c              level    conflicts       glue             remaining
c 
c i 11.34 3294 39296 0   5 1060   43 55% 0 20183617 5250630 68%
c i 11.37 3294 39810 0   5 1061   43 55% 0 20183617 5250626 68%
c i 11.38 3294 40789 0   5 1063   44 55% 0 20183617 5250621 68%
c i 11.40 3294 41301 0   5 1064   44 56% 0 20183617 5250617 68%
c i 11.41 3294 42280 0   5 1066   45 56% 0 20183617 5250612 68%
c i 11.62 3294 38751 0   5 1134  104 56% 1 20183617 5250240 68%
c i 11.62 3294 38590 0   5 1135  104 56% 1 20183617 5249937 68%
c ] 11.79 3294 29044 0   5 1223  179 53% 1 20183617 5167701 67%
c 0 11.79 3294 29044 0   5 1223  179 53% 1 20183617 5167701 67%
c 
c --- [ result ] -------------------------------------------------------------
c 
s UNSATISFIABLE
c 
c --- [ run-time profiling ] -------------------------------------------------
c 
c process time taken by individual solving procedures
c (percentage relative to process time for solving)
c 
c         7.45  100.00% search
c         5.33   71.54% unstable
c         4.33   58.11% parse
c         1.71   22.97% stable
c         0.41    5.49% lucky
c         0.00    0.00% simplify
c   =================================
c         7.45   63.24% solve
c 
c last line shows process time for solving
c (percentage relative to total process time)
c 
c --- [ statistics ] ---------------------------------------------------------
c 
c chronological:              1110        90.76 %  of conflicts
c conflicts:                  1223       164.09    per second
c decisions:                 92258     12377.94    per second
c fixed:                   2521743        32.79 %  of all variables
c learned:                    1216        99.43 %  per conflict
c learned_lits:               2580       100.00 %  learned literals
c minimized:                     0         0.00 %  learned literals
c shrunken:                    247         9.57 %  learned literals
c minishrunken:                454        17.60 %  learned literals
c otfs:                          3         0.25 %  of conflict
c propagations:            8700781         1.17 M  per second
c rephased:                      1      1223.00    interval
c restarts:                      5       244.60    interval
c stabilizing:                   1        18.23 %  of conflicts
c subsumed:                     13         0.00 %  of all clauses
c strengthened:                  3         0.00 %  of all clauses
c 
c seconds are measured in process time for solving
c 
c --- [ resources ] ----------------------------------------------------------
c 
c total process time since initialization:        11.79    seconds
c total real time since initialization:           11.86    seconds
c maximum resident set size of process:         3292.95    MB
c 
c --- [ shutting down ] ------------------------------------------------------
c 
c exit 20
